c Random generated cnf formula, satisfiable: true
p cnf 10 50
8 10 1 0
1 9 6 0
-9 -8 -7 0
-9 1 -7 0
5 -7 10 0
6 10 -2 0
6 10 -1 0
-6 -5 3 0
3 -9 -7 0
-2 -5 3 0
2 5 3 0
-1 7 -4 0
-2 -3 10 0
-8 2 5 0
7 -3 1 0
-1 3 7 0
5 1 -9 0
-8 7 -1 0
-8 -7 -1 0
2 4 -8 0
-5 -9 10 0
-9 -2 1 0
10 -9 -1 0
2 3 -1 0
-3 -10 -8 0
7 6 5 0
9 -10 6 0
8 3 10 0
-6 10 -5 0
8 6 -1 0
-9 -7 4 0
6 -9 7 0
5 8 2 0
-1 3 9 0
-2 -8 -1 0
2 10 8 0
8 7 5 0
3 -2 -7 0
3 -6 -1 0
-10 -8 -7 0
-2 7 10 0
10 -4 9 0
8 7 4 0
2 -4 -3 0
-1 -10 4 0
-9 4 7 0
-5 -8 -10 0
-1 -6 10 0
2 -1 -4 0
-4 9 5 0
